Ta1
3.6
0 .5 .5
.5 0 .5
.5 .5 0
Ni
1
direct
0.000000 0.000000 0.000000 Ni
