Title: Sun Sep 13 22:21:06 EDT 2020 /storage/work/y/yuw3/SQS/fcc/50/SQS16
 3.55
   -1.000000    1.000000    2.000000
   -1.000000    2.000000    1.000000
   -2.000000    1.000000    1.000000
Al Ni
8 8
Direct
0.25000000 0.25000000 0.25000000
0.25000000 0.25000000 0.75000000
0.25000000 0.75000000 0.25000000
0.50000000 1.00000000 1.00000000
0.75000000 0.25000000 0.25000000
1.00000000 0.50000000 1.00000000
1.00000000 1.00000000 0.50000000
1.00000000 1.00000000 1.00000000
0.25000000 0.75000000 0.75000000
0.50000000 0.50000000 0.50000000
0.50000000 0.50000000 1.00000000
0.50000000 1.00000000 0.50000000
0.75000000 0.25000000 0.75000000
0.75000000 0.75000000 0.25000000
0.75000000 0.75000000 0.75000000
1.00000000 0.50000000 0.50000000