Al3 Ni5
1.0
3.662130 -3.264576 0.000000
3.662130 3.264576 0.000000
0.000000 0.000000 3.697750
Al Ni
3 5
direct
0.278551 0.278551 0.499999 Al
0.721449 0.721449 0.499999 Al
0.000000 0.000000 0.000000 Al
0.776525 0.223475 0.499999 Ni
0.223475 0.776525 0.499999 Ni
0.000001 0.500001 0.000000 Ni
0.500001 0.000001 0.000000 Ni
0.500000 0.500000 0.000000 Ni
