Al4 Ni12
1.0
1.763046 1.780963 -3.454041
0.026690 -5.517014 -1.797274
-7.210411 1.863602 -1.764279
Ni Al
12 4
direct
0.250000 0.187500 0.312500 Ni
0.250000 0.437500 0.062500 Ni
0.500000 0.125000 0.875000 Ni
0.500000 0.375000 0.625000 Ni
0.500000 0.625000 0.375000 Ni
0.500000 0.875000 0.125000 Ni
0.750000 0.062500 0.437500 Ni
0.750000 0.312500 0.187500 Ni
0.750000 0.562500 0.937500 Ni
0.750000 0.812500 0.687500 Ni
0.000000 0.750000 0.250000 Ni
0.000000 0.000000 0.000000 Ni
0.250000 0.687500 0.812500 Al
0.250000 0.937500 0.562500 Al
0.000000 0.250000 0.750000 Al
0.000000 0.500000 0.500000 Al
