Al3 Ni5
1.0
3.540209 -3.137273 0.000000
3.540209 3.137273 0.000000
0.000000 0.000000 3.561328
Al Ni
3 5
direct
0.276547 0.276547 0.499999 Al
0.723453 0.723453 0.499999 Al
0.000000 0.000000 0.000000 Al
0.775216 0.224784 0.499999 Ni
0.224784 0.775216 0.499999 Ni
0.000001 0.500001 0.000000 Ni
0.500001 0.000001 0.000000 Ni
0.500000 0.500000 0.000000 Ni
