Al32 Ni24
1.0
-5.964436 5.964436 5.964436
5.964436 -5.964436 5.964436
5.964436 5.964436 -5.964436
Al Ni
32 24
direct
0.000000 0.000000 0.000000 Al
0.500000 0.500000 0.000000 Al
0.000000 0.500000 0.500000 Al
0.500000 0.000000 0.500000 Al
0.500001 0.500001 0.500001 Al
0.000000 0.500001 0.000000 Al
0.000000 0.000000 0.500001 Al
0.500001 0.000000 0.000000 Al
0.250000 0.256826 0.006825 Al
0.750000 0.243175 0.493175 Al
0.256826 0.006825 0.250000 Al
0.243175 0.493175 0.750000 Al
0.006825 0.250000 0.256826 Al
0.493175 0.750000 0.243175 Al
0.243175 0.250000 0.493176 Al
0.256825 0.750000 0.006825 Al
0.250000 0.493176 0.243175 Al
0.750000 0.006825 0.256825 Al
0.493176 0.243175 0.250000 Al
0.006825 0.256825 0.750000 Al
0.750000 0.743176 0.993176 Al
0.250000 0.756826 0.506825 Al
0.743176 0.993176 0.750000 Al
0.756826 0.506825 0.250000 Al
0.993176 0.750000 0.743176 Al
0.506825 0.250000 0.756826 Al
0.756826 0.750000 0.506826 Al
0.743175 0.250000 0.993176 Al
0.750000 0.506826 0.756826 Al
0.250000 0.993176 0.743175 Al
0.506826 0.756826 0.750000 Al
0.993176 0.743175 0.250000 Al
0.250000 0.006608 0.493392 Ni
0.250000 0.743392 0.756608 Ni
0.486784 0.493392 0.743393 Ni
0.013216 0.756609 0.006608 Ni
0.006608 0.493392 0.250000 Ni
0.493392 0.743393 0.486784 Ni
0.756609 0.006608 0.013216 Ni
0.743392 0.756608 0.250000 Ni
0.493392 0.250000 0.006608 Ni
0.006608 0.013216 0.756609 Ni
0.756608 0.250000 0.743392 Ni
0.743393 0.486784 0.493392 Ni
0.750000 0.993393 0.506608 Ni
0.750000 0.256608 0.243392 Ni
0.513216 0.506608 0.256608 Ni
0.986785 0.243392 0.993393 Ni
0.993393 0.506608 0.750000 Ni
0.506608 0.256608 0.513216 Ni
0.243392 0.993393 0.986785 Ni
0.256608 0.243392 0.750000 Ni
0.506608 0.750000 0.993393 Ni
0.993393 0.986785 0.243392 Ni
0.243392 0.750000 0.256608 Ni
0.256608 0.513216 0.506608 Ni
