Al32 Ni24
1.0
-5.876711 5.876711 5.876711
5.876711 -5.876711 5.876711
5.876711 5.876711 -5.876711
Al Ni
32 24
direct
0.000000 0.000000 0.000000 Al
0.500000 0.500000 0.000000 Al
0.000000 0.500000 0.500000 Al
0.500000 0.000000 0.500000 Al
0.500001 0.500001 0.500001 Al
0.000000 0.500001 0.000000 Al
0.000000 0.000000 0.500001 Al
0.500001 0.000000 0.000000 Al
0.250000 0.257634 0.007633 Al
0.750000 0.242367 0.492367 Al
0.257634 0.007633 0.250000 Al
0.242367 0.492367 0.750000 Al
0.007633 0.250000 0.257634 Al
0.492367 0.750000 0.242367 Al
0.242367 0.250000 0.492368 Al
0.257633 0.750000 0.007633 Al
0.250000 0.492368 0.242367 Al
0.750000 0.007633 0.257633 Al
0.492368 0.242367 0.250000 Al
0.007633 0.257633 0.750000 Al
0.750000 0.742368 0.992368 Al
0.250000 0.757634 0.507633 Al
0.742368 0.992368 0.750000 Al
0.757634 0.507633 0.250000 Al
0.992368 0.750000 0.742368 Al
0.507633 0.250000 0.757634 Al
0.757634 0.750000 0.507634 Al
0.742367 0.250000 0.992368 Al
0.750000 0.507634 0.757634 Al
0.250000 0.992368 0.742367 Al
0.507634 0.757634 0.750000 Al
0.992368 0.742367 0.250000 Al
0.250000 0.006498 0.493502 Ni
0.250000 0.743502 0.756498 Ni
0.487005 0.493502 0.743503 Ni
0.012995 0.756499 0.006498 Ni
0.006498 0.493502 0.250000 Ni
0.493502 0.743503 0.487005 Ni
0.756499 0.006498 0.012995 Ni
0.743502 0.756498 0.250000 Ni
0.493502 0.250000 0.006498 Ni
0.006498 0.012995 0.756499 Ni
0.756498 0.250000 0.743502 Ni
0.743503 0.487005 0.493502 Ni
0.750000 0.993503 0.506498 Ni
0.750000 0.256498 0.243502 Ni
0.512995 0.506498 0.256498 Ni
0.987006 0.243502 0.993503 Ni
0.993503 0.506498 0.750000 Ni
0.506498 0.256498 0.512995 Ni
0.243502 0.993503 0.987006 Ni
0.256498 0.243502 0.750000 Ni
0.506498 0.750000 0.993503 Ni
0.993503 0.987006 0.243502 Ni
0.243502 0.750000 0.256498 Ni
0.256498 0.512995 0.506498 Ni
