YW POSCAR from Ymode for irrep Ag
 1.00
       3.754750000000      -3.295060000000       0.000000000000
       3.754750000000       3.295060000000       0.000000000000
       0.000000000000       0.000000000000       3.740490000000
   Al  Ni
    3    5
D
       0.275529662428       0.275529662428       0.499998663277
       0.724470337572       0.724470337572       0.499998663277
       0.000000000000       0.000000000000       0.000000000000
       0.774099712904       0.225900287096       0.499998663277
       0.225900287096       0.774099712904       0.499998663277
       0.000000665823       0.500000665823       0.000000000000
       0.500000665823       0.000000665823       0.000000000000
       0.500000000000       0.500000000000       0.000000000000
