Al12 Ni4
1.0
4.733080 0.000000 0.000000
0.000000 6.483851 0.000000
0.000000 0.000000 7.254536
Al Ni
12 4
direct
0.915760 0.007942 0.250000 Al
0.363978 0.172107 0.445239 Al
0.363978 0.172107 0.054761 Al
0.863978 0.327893 0.554761 Al
0.136022 0.672107 0.445239 Al
0.636022 0.827893 0.945239 Al
0.136022 0.672107 0.054761 Al
0.636022 0.827893 0.554761 Al
0.863978 0.327893 0.945239 Al
0.584240 0.507942 0.250000 Al
0.084240 0.992058 0.750000 Al
0.415760 0.492058 0.750000 Al
0.443422 0.870835 0.250000 Ni
0.056578 0.370835 0.250000 Ni
0.556578 0.129165 0.750000 Ni
0.943422 0.629165 0.750000 Ni
