Al12 Ni4
1.0
4.988692 0.000000 0.000000
0.000000 6.814512 0.000000
0.000000 0.000000 7.582882
Al Ni
12 4
direct
0.916344 0.004589 0.250000 Al
0.361035 0.168924 0.444700 Al
0.361035 0.168924 0.055300 Al
0.861035 0.331076 0.555300 Al
0.138965 0.668924 0.444700 Al
0.638965 0.831076 0.944700 Al
0.138965 0.668924 0.055300 Al
0.638965 0.831076 0.555300 Al
0.861035 0.331076 0.944700 Al
0.583656 0.504589 0.250000 Al
0.083656 0.995411 0.750000 Al
0.416344 0.495411 0.750000 Al
0.444721 0.867121 0.250000 Ni
0.055279 0.367121 0.250000 Ni
0.555279 0.132879 0.750000 Ni
0.944721 0.632879 0.750000 Ni
