Al3 Ni5
1.0
3.849335 -3.430771 0.000000
3.849335 3.430771 0.000000
0.000000 0.000000 3.876051
Al Ni
3 5
direct
0.281499 0.281499 0.499999 Al
0.718501 0.718501 0.499999 Al
0.000000 0.000000 0.000000 Al
0.778076 0.221924 0.499999 Ni
0.221924 0.778076 0.499999 Ni
0.000001 0.500001 0.000000 Ni
0.500001 0.000001 0.000000 Ni
0.500000 0.500000 0.000000 Ni
