Ni1
1.0
0.000000 1.767856 1.767856
1.767856 0.000000 1.767856
1.767856 1.767856 0.000000
Ni
1
direct
0.000000 0.000000 0.000000 Ni
