Al1 Ni3
1.0
3.561084 0.000000 0.000000
0.000000 3.561084 0.000000
0.000000 0.000000 3.561084
Al Ni
1 3
direct
0.000000 0.000000 0.000000 Al
0.500000 0.500000 0.000000 Ni
0.500000 0.000000 0.500000 Ni
0.000000 0.500000 0.500000 Ni
