Al32 Ni24
1.0
-5.392743 5.392743 5.392743
5.392743 -5.392743 5.392743
5.392743 5.392743 -5.392743
Al Ni
32 24
direct
0.000000 0.000000 0.000000 Al
0.500000 0.500000 0.000000 Al
0.000000 0.500000 0.500000 Al
0.500000 0.000000 0.500000 Al
0.500001 0.500001 0.500001 Al
0.000000 0.500001 0.000000 Al
0.000000 0.000000 0.500001 Al
0.500001 0.000000 0.000000 Al
0.250000 0.260370 0.010369 Al
0.750000 0.239631 0.489631 Al
0.260370 0.010369 0.250000 Al
0.239631 0.489631 0.750000 Al
0.010369 0.250000 0.260370 Al
0.489631 0.750000 0.239631 Al
0.239631 0.250000 0.489632 Al
0.260369 0.750000 0.010369 Al
0.250000 0.489632 0.239631 Al
0.750000 0.010369 0.260369 Al
0.489632 0.239631 0.250000 Al
0.010369 0.260369 0.750000 Al
0.750000 0.739632 0.989632 Al
0.250000 0.760370 0.510369 Al
0.739632 0.989632 0.750000 Al
0.760370 0.510369 0.250000 Al
0.989632 0.750000 0.739632 Al
0.510369 0.250000 0.760370 Al
0.760370 0.750000 0.510370 Al
0.739631 0.250000 0.989632 Al
0.750000 0.510370 0.760370 Al
0.250000 0.989632 0.739631 Al
0.510370 0.760370 0.750000 Al
0.989632 0.739631 0.250000 Al
0.250000 0.005984 0.494016 Ni
0.250000 0.744016 0.755984 Ni
0.488032 0.494016 0.744017 Ni
0.011968 0.755985 0.005984 Ni
0.005984 0.494016 0.250000 Ni
0.494016 0.744017 0.488032 Ni
0.755985 0.005984 0.011968 Ni
0.744016 0.755984 0.250000 Ni
0.494016 0.250000 0.005984 Ni
0.005984 0.011968 0.755985 Ni
0.755984 0.250000 0.744016 Ni
0.744017 0.488032 0.494016 Ni
0.750000 0.994017 0.505984 Ni
0.750000 0.255984 0.244016 Ni
0.511968 0.505984 0.255984 Ni
0.988033 0.244016 0.994017 Ni
0.994017 0.505984 0.750000 Ni
0.505984 0.255984 0.511968 Ni
0.244016 0.994017 0.988033 Ni
0.255984 0.244016 0.750000 Ni
0.505984 0.750000 0.994017 Ni
0.994017 0.988033 0.244016 Ni
0.244016 0.750000 0.255984 Ni
0.255984 0.511968 0.505984 Ni
