Al8 Ni8
1.0
-3.849868 3.849868 7.806308
-3.849868 7.806308 3.849868
-7.806308 3.849868 3.849868
Al Ni
8 8
direct
0.250000 0.250000 0.250000 Al
0.250000 0.250000 0.750000 Al
0.250000 0.750000 0.250000 Al
0.500000 0.000000 0.000000 Al
0.750000 0.250000 0.250000 Al
0.000000 0.500000 0.000000 Al
0.000000 0.000000 0.500000 Al
0.000000 0.000000 0.000000 Al
0.250000 0.750000 0.750000 Ni
0.500000 0.500000 0.500000 Ni
0.500000 0.500000 0.000000 Ni
0.500000 0.000000 0.500000 Ni
0.750000 0.250000 0.750000 Ni
0.750000 0.750000 0.250000 Ni
0.750000 0.750000 0.750000 Ni
0.000000 0.500000 0.500000 Ni
