Al32 Ni24
1.0
-5.692942 5.692942 5.692942
5.692942 -5.692942 5.692942
5.692942 5.692942 -5.692942
Al Ni
32 24
direct
0.000000 0.000000 0.000000 Al
0.500000 0.500000 0.000000 Al
0.000000 0.500000 0.500000 Al
0.500000 0.000000 0.500000 Al
0.500001 0.500001 0.500001 Al
0.000000 0.500001 0.000000 Al
0.000000 0.000000 0.500001 Al
0.500001 0.000000 0.000000 Al
0.250000 0.258921 0.008920 Al
0.750000 0.241080 0.491080 Al
0.258921 0.008920 0.250000 Al
0.241080 0.491080 0.750000 Al
0.008920 0.250000 0.258921 Al
0.491080 0.750000 0.241080 Al
0.241080 0.250000 0.491081 Al
0.258920 0.750000 0.008920 Al
0.250000 0.491081 0.241080 Al
0.750000 0.008920 0.258920 Al
0.491081 0.241080 0.250000 Al
0.008920 0.258920 0.750000 Al
0.750000 0.741081 0.991081 Al
0.250000 0.758921 0.508920 Al
0.741081 0.991081 0.750000 Al
0.758921 0.508920 0.250000 Al
0.991081 0.750000 0.741081 Al
0.508920 0.250000 0.758921 Al
0.758921 0.750000 0.508921 Al
0.741080 0.250000 0.991081 Al
0.750000 0.508921 0.758921 Al
0.250000 0.991081 0.741080 Al
0.508921 0.758921 0.750000 Al
0.991081 0.741080 0.250000 Al
0.250000 0.006310 0.493690 Ni
0.250000 0.743690 0.756310 Ni
0.487380 0.493690 0.743691 Ni
0.012620 0.756311 0.006310 Ni
0.006310 0.493690 0.250000 Ni
0.493690 0.743691 0.487380 Ni
0.756311 0.006310 0.012620 Ni
0.743690 0.756310 0.250000 Ni
0.493690 0.250000 0.006310 Ni
0.006310 0.012620 0.756311 Ni
0.756310 0.250000 0.743690 Ni
0.743691 0.487380 0.493690 Ni
0.750000 0.993691 0.506310 Ni
0.750000 0.256310 0.243690 Ni
0.512620 0.506310 0.256310 Ni
0.987381 0.243690 0.993691 Ni
0.993691 0.506310 0.750000 Ni
0.506310 0.256310 0.512620 Ni
0.243690 0.993691 0.987381 Ni
0.256310 0.243690 0.750000 Ni
0.506310 0.750000 0.993691 Ni
0.993691 0.987381 0.243690 Ni
0.243690 0.750000 0.256310 Ni
0.256310 0.512620 0.506310 Ni
