Al12 Ni4
1.0
4.638198 0.000000 0.000000
0.000000 6.379641 0.000000
0.000000 0.000000 7.127875
Al Ni
12 4
direct
0.914786 0.010408 0.250000 Al
0.366682 0.173508 0.444676 Al
0.366682 0.173508 0.055324 Al
0.866682 0.326492 0.555324 Al
0.133318 0.673508 0.444676 Al
0.633318 0.826492 0.944676 Al
0.133318 0.673508 0.055324 Al
0.633318 0.826492 0.555324 Al
0.866682 0.326492 0.944676 Al
0.585214 0.510408 0.250000 Al
0.085214 0.989592 0.750000 Al
0.414786 0.489592 0.750000 Al
0.442331 0.872482 0.250000 Ni
0.057669 0.372482 0.250000 Ni
0.557669 0.127518 0.750000 Ni
0.942331 0.627518 0.750000 Ni
