Al1
1.0
0.000000 1.913117 1.913117
1.913117 0.000000 1.913117
1.913117 1.913117 0.000000
Al
1
direct
0.000000 0.000000 0.000000 Al
