Al3 Ni5
1.0
3.728408 -3.323923 0.000000
3.728408 3.323923 0.000000
0.000000 0.000000 3.754913
Al Ni
3 5
direct
0.279631 0.279631 0.499999 Al
0.720369 0.720369 0.499999 Al
0.000000 0.000000 0.000000 Al
0.777130 0.222870 0.499999 Ni
0.222870 0.777130 0.499999 Ni
0.000001 0.500001 0.000000 Ni
0.500001 0.000001 0.000000 Ni
0.500000 0.500000 0.000000 Ni
