Al12 Ni4
1.0
4.542322 0.000000 0.000000
0.000000 6.266514 0.000000
0.000000 0.000000 6.998064
Al Ni
12 4
direct
0.914071 0.012342 0.250000 Al
0.368603 0.174630 0.444565 Al
0.368603 0.174630 0.055435 Al
0.868603 0.325370 0.555435 Al
0.131397 0.674630 0.444565 Al
0.631397 0.825370 0.944565 Al
0.131397 0.674630 0.055435 Al
0.631397 0.825370 0.555435 Al
0.868603 0.325370 0.944565 Al
0.585929 0.512342 0.250000 Al
0.085929 0.987658 0.750000 Al
0.414071 0.487658 0.750000 Al
0.441189 0.874041 0.250000 Ni
0.058811 0.374041 0.250000 Ni
0.558811 0.125959 0.750000 Ni
0.941189 0.625959 0.750000 Ni
