Al3 Ni5
1.0
3.606378 -3.201489 0.000000
3.606378 3.201489 0.000000
0.000000 0.000000 3.627385
Al Ni
3 5
direct
0.277415 0.277415 0.499999 Al
0.722585 0.722585 0.499999 Al
0.000000 0.000000 0.000000 Al
0.775679 0.224321 0.499999 Ni
0.224321 0.775679 0.499999 Ni
0.000001 0.500001 0.000000 Ni
0.500001 0.000001 0.000000 Ni
0.500000 0.500000 0.000000 Ni
