Al12 Ni4
1.0
4.902390 0.000000 0.000000
0.000000 6.710272 0.000000
0.000000 0.000000 7.480048
Al Ni
12 4
direct
0.916228 0.007139 0.250000 Al
0.362489 0.170899 0.444872 Al
0.362489 0.170899 0.055128 Al
0.862489 0.329101 0.555128 Al
0.137511 0.670899 0.444872 Al
0.637511 0.829101 0.944872 Al
0.137511 0.670899 0.055128 Al
0.637511 0.829101 0.555128 Al
0.862489 0.329101 0.944872 Al
0.583772 0.507139 0.250000 Al
0.083772 0.992861 0.750000 Al
0.416228 0.492861 0.750000 Al
0.443457 0.869883 0.250000 Ni
0.056543 0.369883 0.250000 Ni
0.556543 0.130117 0.750000 Ni
0.943457 0.630117 0.750000 Ni
