Al32 Ni24
1.0
-5.496475 5.496475 5.496475
5.496475 -5.496475 5.496475
5.496475 5.496475 -5.496475
Al Ni
32 24
direct
0.000000 0.000000 0.000000 Al
0.500000 0.500000 0.000000 Al
0.000000 0.500000 0.500000 Al
0.500000 0.000000 0.500000 Al
0.500001 0.500001 0.500001 Al
0.000000 0.500001 0.000000 Al
0.000000 0.000000 0.500001 Al
0.500001 0.000000 0.000000 Al
0.250000 0.259939 0.009938 Al
0.750000 0.240062 0.490062 Al
0.259939 0.009938 0.250000 Al
0.240062 0.490062 0.750000 Al
0.009938 0.250000 0.259939 Al
0.490062 0.750000 0.240062 Al
0.240062 0.250000 0.490063 Al
0.259938 0.750000 0.009938 Al
0.250000 0.490063 0.240062 Al
0.750000 0.009938 0.259938 Al
0.490063 0.240062 0.250000 Al
0.009938 0.259938 0.750000 Al
0.750000 0.740063 0.990063 Al
0.250000 0.759939 0.509938 Al
0.740063 0.990063 0.750000 Al
0.759939 0.509938 0.250000 Al
0.990063 0.750000 0.740063 Al
0.509938 0.250000 0.759939 Al
0.759939 0.750000 0.509939 Al
0.740062 0.250000 0.990063 Al
0.750000 0.509939 0.759939 Al
0.250000 0.990063 0.740062 Al
0.509939 0.759939 0.750000 Al
0.990063 0.740062 0.250000 Al
0.250000 0.006097 0.493903 Ni
0.250000 0.743903 0.756097 Ni
0.487806 0.493903 0.743904 Ni
0.012194 0.756098 0.006097 Ni
0.006097 0.493903 0.250000 Ni
0.493903 0.743904 0.487806 Ni
0.756098 0.006097 0.012194 Ni
0.743903 0.756097 0.250000 Ni
0.493903 0.250000 0.006097 Ni
0.006097 0.012194 0.756098 Ni
0.756097 0.250000 0.743903 Ni
0.743904 0.487806 0.493903 Ni
0.750000 0.993904 0.506097 Ni
0.750000 0.256097 0.243903 Ni
0.512194 0.506097 0.256097 Ni
0.987807 0.243903 0.993904 Ni
0.993904 0.506097 0.750000 Ni
0.506097 0.256097 0.512194 Ni
0.243903 0.993904 0.987807 Ni
0.256097 0.243903 0.750000 Ni
0.506097 0.750000 0.993904 Ni
0.993904 0.987807 0.243903 Ni
0.243903 0.750000 0.256097 Ni
0.256097 0.512194 0.506097 Ni
