Al12 Ni4
1.0
5.070067 0.000000 0.000000
0.000000 6.907206 0.000000
0.000000 0.000000 7.695639
Al Ni
12 4
direct
0.916718 0.002652 0.250000 Al
0.358524 0.167917 0.444815 Al
0.358524 0.167917 0.055185 Al
0.858524 0.332083 0.555185 Al
0.141476 0.667917 0.444815 Al
0.641476 0.832083 0.944815 Al
0.141476 0.667917 0.055185 Al
0.641476 0.832083 0.555185 Al
0.858524 0.332083 0.944815 Al
0.583282 0.502652 0.250000 Al
0.083282 0.997348 0.750000 Al
0.416718 0.497348 0.750000 Al
0.445450 0.866351 0.250000 Ni
0.054550 0.366351 0.250000 Ni
0.554550 0.133649 0.750000 Ni
0.945450 0.633649 0.750000 Ni
