Al12 Ni4
1.0
4.806885 0.000000 0.000000
0.000000 6.556816 0.000000
0.000000 0.000000 7.294313
Al Ni
12 4
direct
0.915174 0.008567 0.250000 Al
0.361057 0.171433 0.445417 Al
0.361057 0.171433 0.054583 Al
0.861057 0.328567 0.554583 Al
0.138943 0.671433 0.445417 Al
0.638943 0.828567 0.945417 Al
0.138943 0.671433 0.054583 Al
0.638943 0.828567 0.554583 Al
0.861057 0.328567 0.945417 Al
0.584826 0.508567 0.250000 Al
0.084826 0.991433 0.750000 Al
0.415174 0.491433 0.750000 Al
0.443836 0.871255 0.250000 Ni
0.056164 0.371255 0.250000 Ni
0.556164 0.128745 0.750000 Ni
0.943836 0.628745 0.750000 Ni
