Al1 Ni1
1.0
2.887902 0.000000 0.000000
0.000000 2.887902 0.000000
0.000000 0.000000 2.887902
Al Ni
1 1
direct
0.000000 0.000000 0.000000 Al
0.500000 0.500000 0.500000 Ni
