Al32 Ni24
1.0
-5.786286 5.786286 5.786286
5.786286 -5.786286 5.786286
5.786286 5.786286 -5.786286
Al Ni
32 24
direct
0.000000 0.000000 0.000000 Al
0.500000 0.500000 0.000000 Al
0.000000 0.500000 0.500000 Al
0.500000 0.000000 0.500000 Al
0.500001 0.500001 0.500001 Al
0.000000 0.500001 0.000000 Al
0.000000 0.000000 0.500001 Al
0.500001 0.000000 0.000000 Al
0.250000 0.258327 0.008326 Al
0.750000 0.241674 0.491674 Al
0.258327 0.008326 0.250000 Al
0.241674 0.491674 0.750000 Al
0.008326 0.250000 0.258327 Al
0.491674 0.750000 0.241674 Al
0.241674 0.250000 0.491675 Al
0.258326 0.750000 0.008326 Al
0.250000 0.491675 0.241674 Al
0.750000 0.008326 0.258326 Al
0.491675 0.241674 0.250000 Al
0.008326 0.258326 0.750000 Al
0.750000 0.741675 0.991675 Al
0.250000 0.758327 0.508326 Al
0.741675 0.991675 0.750000 Al
0.758327 0.508326 0.250000 Al
0.991675 0.750000 0.741675 Al
0.508326 0.250000 0.758327 Al
0.758327 0.750000 0.508327 Al
0.741674 0.250000 0.991675 Al
0.750000 0.508327 0.758327 Al
0.250000 0.991675 0.741674 Al
0.508327 0.758327 0.750000 Al
0.991675 0.741674 0.250000 Al
0.250000 0.006389 0.493611 Ni
0.250000 0.743611 0.756389 Ni
0.487222 0.493611 0.743612 Ni
0.012778 0.756390 0.006389 Ni
0.006389 0.493611 0.250000 Ni
0.493611 0.743612 0.487222 Ni
0.756390 0.006389 0.012778 Ni
0.743611 0.756389 0.250000 Ni
0.493611 0.250000 0.006389 Ni
0.006389 0.012778 0.756390 Ni
0.756389 0.250000 0.743611 Ni
0.743612 0.487222 0.493611 Ni
0.750000 0.993612 0.506389 Ni
0.750000 0.256389 0.243611 Ni
0.512778 0.506389 0.256389 Ni
0.987223 0.243611 0.993612 Ni
0.993612 0.506389 0.750000 Ni
0.506389 0.256389 0.512778 Ni
0.243611 0.993612 0.987223 Ni
0.256389 0.243611 0.750000 Ni
0.506389 0.750000 0.993612 Ni
0.993612 0.987223 0.243611 Ni
0.243611 0.750000 0.256389 Ni
0.256389 0.512778 0.506389 Ni
