Ta1
4.10
0 .5 .5
.5 0 .5
.5 .5 0
Al
1
direct
0.000000 0.000000 0.000000 Al
