YW POSCAR from Ymode for irrep A1g
 1.00
      -5.700030000000       5.700030000000       5.700030000000
       5.700030000000      -5.700030000000       5.700030000000
       5.700030000000       5.700030000000      -5.700030000000
   Al   Ni
   32   24
D
       0.000000000000       0.000000000000       0.000000000000
       0.500000000000       0.500000000000       0.000000000000
       0.000000000000       0.500000000000       0.500000000000
       0.500000000000       0.000000000000       0.500000000000
       0.500000877188       0.500000877188       0.500000877188
       0.000000000000       0.500000877188       0.000000000000
       0.000000000000       0.000000000000       0.500000877188
       0.500000877188       0.000000000000       0.000000000000
       0.250000438594       0.258920567085       0.008920128491
       0.750000438594       0.241080310104       0.491079871509
       0.258920567085       0.008920128491       0.250000438594
       0.241080310104       0.491079871509       0.750000438594
       0.008920128491       0.250000438594       0.258920567085
       0.491079871509       0.750000438594       0.241080310104
       0.241080310104       0.250000438594       0.491080748698
       0.258919689896       0.750000438594       0.008920128491
       0.250000438594       0.491080748698       0.241080310104
       0.750000438594       0.008920128491       0.258919689896
       0.491080748698       0.241080310104       0.250000438594
       0.008920128491       0.258919689896       0.750000438594
       0.750000438594       0.741081187292       0.991080748698
       0.250000438594       0.758920567085       0.508920128491
       0.741081187292       0.991080748698       0.750000438594
       0.758920567085       0.508920128491       0.250000438594
       0.991080748698       0.750000438594       0.741081187292
       0.508920128491       0.250000438594       0.758920567085
       0.758920567085       0.750000438594       0.508921005679
       0.741080310104       0.250000438594       0.991080748698
       0.750000438594       0.508921005679       0.758920567085
       0.250000438594       0.991080748698       0.741080310104
       0.508921005679       0.758920567085       0.750000438594
       0.991080748698       0.741080310104       0.250000438594
       0.250000438594       0.006310493103       0.493690384086
       0.249999561406       0.743689945492       0.756310054508
       0.487379890983       0.493690384086       0.743690822680
       0.012620109017       0.756310931697       0.006310493103
       0.006310493103       0.493690384086       0.250000438594
       0.493690384086       0.743690822680       0.487379890983
       0.756310931697       0.006310493103       0.012620109017
       0.743689945492       0.756310054508       0.249999561406
       0.493690384086       0.250000438594       0.006310493103
       0.006310493103       0.012620109017       0.756310931697
       0.756310054508       0.249999561406       0.743689945492
       0.743690822680       0.487379890983       0.493690384086
       0.750000438594       0.993691261274       0.506310493103
       0.750000438594       0.256310054508       0.243689945492
       0.512620109017       0.506310493103       0.256310054508
       0.987380768171       0.243689945492       0.993691261274
       0.993691261274       0.506310493103       0.750000438594
       0.506310493103       0.256310054508       0.512620109017
       0.243689945492       0.993691261274       0.987380768171
       0.256310054508       0.243689945492       0.750000438594
       0.506310493103       0.750000438594       0.993691261274
       0.993691261274       0.987380768171       0.243689945492
       0.243689945492       0.750000438594       0.256310054508
       0.256310054508       0.512620109017       0.506310493103
