Al12 Ni4
1.0
4.819031 0.000000 0.000000
0.000000 6.597950 0.000000
0.000000 0.000000 7.370454
Al Ni
12 4
direct
0.916003 0.007476 0.250000 Al
0.363015 0.171408 0.445025 Al
0.363015 0.171408 0.054975 Al
0.863015 0.328592 0.554975 Al
0.136985 0.671408 0.445025 Al
0.636985 0.828592 0.945025 Al
0.136985 0.671408 0.054975 Al
0.636985 0.828592 0.554975 Al
0.863015 0.328592 0.945025 Al
0.583997 0.507476 0.250000 Al
0.083997 0.992524 0.750000 Al
0.416003 0.492524 0.750000 Al
0.443378 0.870426 0.250000 Ni
0.056622 0.370426 0.250000 Ni
0.556622 0.129574 0.750000 Ni
0.943378 0.629574 0.750000 Ni
