Al12 Ni4
1.0
1.977340 1.920994 -3.914723
-0.071015 -6.055730 -2.138901
-8.199138 1.912561 -2.105243
Al Ni
12 4
direct
0.250000 0.187500 0.312500 Al
0.250000 0.437500 0.062500 Al
0.500000 0.125000 0.875000 Al
0.500000 0.375000 0.625000 Al
0.500000 0.625000 0.375000 Al
0.500000 0.875000 0.125000 Al
0.750000 0.062500 0.437500 Al
0.750000 0.312500 0.187500 Al
0.750000 0.562500 0.937500 Al
0.750000 0.812500 0.687500 Al
0.000000 0.750000 0.250000 Al
0.000000 0.000000 0.000000 Al
0.250000 0.687500 0.812500 Ni
0.250000 0.937500 0.562500 Ni
0.000000 0.250000 0.750000 Ni
0.000000 0.500000 0.500000 Ni
