Al3 Ni5
1.0
3.793738 -3.376851 0.000000
3.793738 3.376851 0.000000
0.000000 0.000000 3.814032
Al Ni
3 5
direct
0.280537 0.280537 0.499999 Al
0.719463 0.719463 0.499999 Al
0.000000 0.000000 0.000000 Al
0.777085 0.222915 0.499999 Ni
0.222915 0.777085 0.499999 Ni
0.000001 0.500001 0.000000 Ni
0.500001 0.000001 0.000000 Ni
0.500000 0.500000 0.000000 Ni
