Al3 Ni5
1.0
3.909331 -3.485268 0.000000
3.909331 3.485268 0.000000
0.000000 0.000000 3.927656
Al Ni
3 5
direct
0.283738 0.283738 0.499999 Al
0.716262 0.716262 0.499999 Al
0.000000 0.000000 0.000000 Al
0.779407 0.220593 0.499999 Ni
0.220593 0.779407 0.499999 Ni
0.000001 0.500001 0.000000 Ni
0.500001 0.000001 0.000000 Ni
0.500000 0.500000 0.000000 Ni
