Al32 Ni24
1.0
-5.596433 5.596433 5.596433
5.596433 -5.596433 5.596433
5.596433 5.596433 -5.596433
Al Ni
32 24
direct
0.000000 0.000000 0.000000 Al
0.500000 0.500000 0.000000 Al
0.000000 0.500000 0.500000 Al
0.500000 0.000000 0.500000 Al
0.500001 0.500001 0.500001 Al
0.000000 0.500001 0.000000 Al
0.000000 0.000000 0.500001 Al
0.500001 0.000000 0.000000 Al
0.250000 0.259463 0.009462 Al
0.750000 0.240538 0.490538 Al
0.259463 0.009462 0.250000 Al
0.240538 0.490538 0.750000 Al
0.009462 0.250000 0.259463 Al
0.490538 0.750000 0.240538 Al
0.240538 0.250000 0.490539 Al
0.259462 0.750000 0.009462 Al
0.250000 0.490539 0.240538 Al
0.750000 0.009462 0.259462 Al
0.490539 0.240538 0.250000 Al
0.009462 0.259462 0.750000 Al
0.750000 0.740539 0.990539 Al
0.250000 0.759463 0.509462 Al
0.740539 0.990539 0.750000 Al
0.759463 0.509462 0.250000 Al
0.990539 0.750000 0.740539 Al
0.509462 0.250000 0.759463 Al
0.759463 0.750000 0.509463 Al
0.740538 0.250000 0.990539 Al
0.750000 0.509463 0.759463 Al
0.250000 0.990539 0.740538 Al
0.509463 0.759463 0.750000 Al
0.990539 0.740538 0.250000 Al
0.250000 0.006183 0.493817 Ni
0.250000 0.743817 0.756183 Ni
0.487635 0.493817 0.743818 Ni
0.012365 0.756184 0.006183 Ni
0.006183 0.493817 0.250000 Ni
0.493817 0.743818 0.487635 Ni
0.756184 0.006183 0.012365 Ni
0.743817 0.756183 0.250000 Ni
0.493817 0.250000 0.006183 Ni
0.006183 0.012365 0.756184 Ni
0.756183 0.250000 0.743817 Ni
0.743818 0.487635 0.493817 Ni
0.750000 0.993818 0.506183 Ni
0.750000 0.256183 0.243817 Ni
0.512365 0.506183 0.256183 Ni
0.987636 0.243817 0.993818 Ni
0.993818 0.506183 0.750000 Ni
0.506183 0.256183 0.512365 Ni
0.243817 0.993818 0.987636 Ni
0.256183 0.243817 0.750000 Ni
0.506183 0.750000 0.993818 Ni
0.993818 0.987636 0.243817 Ni
0.243817 0.750000 0.256183 Ni
0.256183 0.512365 0.506183 Ni
