Ni1
1.0
0.000000 1.698064 1.698064
1.698064 0.000000 1.698064
1.698064 1.698064 0.000000
Ni
1
direct
0.000000 0.000000 0.000000 Ni
