Al1 Ni1
1.0
2.935980 0.000000 0.000000
0.000000 2.935980 0.000000
0.000000 0.000000 2.935980
Al Ni
1 1
direct
0.000000 0.000000 0.000000 Al
0.500000 0.500000 0.500000 Ni
